(set-logic QF_S)
(set-option :parse-transducers true)
(set-option :produce-models true)
(define-fun-rec toLower ((x String) (y String)) Bool
   (or (and (= x "") (= y ""))
       (and (not (= x "")) (not (= y ""))
           (= (char.code (str.head y))
               (ite (and (<= 65 (char.code (str.head x)))
                       (<= (char.code (str.head x)) 90))
                   (+ (char.code (str.head x)) 32)
                   (char.code (str.head x))))
           (toLower (str.tail x) (str.tail y))))
)
(declare-fun r1[$i2] () String)
(declare-fun $r3 () String)
(declare-fun L23  () String)
(declare-fun L85  () String)
(declare-fun L5  () String)
(declare-fun L54  () String)
(declare-fun L11  () String)
(declare-fun L3  () String)
(declare-fun L1  () String)
(declare-fun L0  () String)
(declare-fun L17  () String)
(declare-fun L28  () String)
(assert (toLower r1[$i2]  L28 ))
(assert (toLower "field"  L17 ))
(assert (toLower $r3  L0 ))
(assert (toLower "name"  L1 ))
(assert (toLower "length"  L3 ))
(assert (toLower "type"  L11 ))
(assert (toLower "option"  L54 ))
(assert (toLower "description"  L5 ))
(assert (toLower "database"  L85 ))
(assert (toLower "table"  L23 ))

(assert (not (= L0 L1 )))
(assert (not (= L0 L3 )))
(assert (not (= L0 L5 )))
(assert (not (= L0 L1 )))
(assert (not (= L0 L5 )))
(assert (not (= L0 L11 )))
(assert (not (= L0 L1 )))
(assert (not (= L0 L5 )))
(assert (not (= L0 L17 )))
(assert (not (= L0 L3 )))
(assert (not (= L0 L1 )))
(assert (= L0 L23 ))
(assert (not (= L0 L5 )))
(assert (not (= L0 L5 )))
(assert (not (= L28 "sql" )))
(assert (not (= L0 L5 )))
(assert (not (= L0 L11 )))
(assert (= L0 L5 ))
(assert (not (= L0 L1 )))
(assert (not (= L0 L5 )))
(assert (not (= L0 L5 )))
(assert (= L0 L5 ))
(assert (not (= L0 L1 )))
(assert (not (= L0 L1 )))
(assert (not (= L0 L11 )))
(assert (= L0 L5 ))
(assert (not (= L0 L11 )))
(assert (= L0 L54 ))
(assert (not (= L0 L1 )))
(assert (not (= L0 L1 )))
(assert (not (= L0 L5 )))
(assert (= L28 "html" ))
(assert (= L0 L5 ))
(assert (= L0 L1 ))
(assert (= L0 L3 ))
(assert (= L0 L11 ))
(assert (not (= L0 L5 )))
(assert (= L0 L54 ))
(assert (= L0 L11 ))
(assert (= L0 L54 ))
(assert (not (= L0 L5 )))
(assert (not (= L0 L1 )))
(assert (not (= L0 L1 )))
(assert (= L0 L85 ))
(assert (not (= L0 L1 )))
(assert (not (= L0 L3 )))
(assert (= L0 L17 ))
(assert (not (= L0 L1 )))
(assert (not (= L0 L23 )))
(assert (not (= L0 L1 )))
(assert (= L0 L1 ))
(assert (= L0 L17 ))
(assert (not (= L0 L1 )))
(check-sat)
(get-model)
(exit)
